140	32	4	65	
10	10	10	10

0	0	0	0	0	0	4	1	2	9	14
1	1	0	1	1	5	5	7	6	5	4	3
2	5	1	4	0	2	6	15	8	7	6	5	4
3	1	0	7	4	1	6	17	16	15	13	12	11
4	6	3	0	3	7	4	17	16	12	10
5	5	0	7	2	5	2	19	12
6	6	4	0	5	1	2	19	12
7	0	5	5	4	5	2	19	12
8	5	0	2	4	7	2	19	12
9	3	0	4	6	2	2	19	12
10	4	0	4	2	4	4	21	20	19	18
11	0	2	6	3	9	4	30	21	20	19
12	6	0	2	5	4	3	21	20	18
13	3	3	0	6	8	3	20	19	18
14	0	4	7	4	4	3	21	19	18
15	5	6	0	3	7	4	30	24	21	20
16	3	5	0	4	4	2	21	18
17	7	7	0	3	2	2	19	18
18	3	0	5	6	5	5	30	29	24	23	22
19	2	0	4	3	9	4	29	28	24	23
20	3	7	0	7	5	3	29	23	22
21	0	2	4	2	5	4	29	28	26	23
22	6	3	0	6	8	4	28	27	26	25
23	8	4	2	0	8	2	27	25
24	0	3	3	4	2	2	26	25
25	3	7	3	0	4	1	31
26	1	0	3	6	2	1	31
27	2	2	0	2	4	1	31
28	5	4	3	0	3	1	31
29	6	0	3	4	2	1	31
30	1	0	5	5	6	1	31
31	0	0	0	0	0	0
